32      3       
18      16      18      
0       0       0       0       3       2       3       4       
2       9       8       9       3       15      23      25      
3       9       0       2       2       14      26      
3       8       0       0       3       5       6       13      
8       8       10      3       3       7       12      19      
7       0       0       4       3       8       10      22      
8       0       4       2       2       18      29      
3       7       0       0       2       9       27      
4       0       5       0       1       16      
9       0       2       1       1       11      
2       9       7       8       2       16      20      
4       0       0       5       1       21      
9       0       0       8       2       16      19      
7       8       10      0       1       24      
2       0       1       10      1       31      
1       0       5       0       3       17      26      30      
4       0       0       1       1       24      
7       3       0       9       1       31      
2       8       0       0       1       31      
7       2       0       8       1       25      
8       4       7       0       1       23      
3       6       1       0       1       28      
7       9       0       4       1       27      
1       0       6       0       1       25      
1       0       10      0       1       29      
9       10      0       0       1       28      
6       3       0       0       1       28      
4       0       10      0       1       29      
6       6       0       0       1       32      
3       0       6       0       1       32      
8       0       10      0       1       32      
0       0       0       0       0       